! BP RI OPT def2-SVP def2/J NormalPrint TightSCF 
! CPCM(Acetonitrile)
%scf
	MaxIter 125
	CNVDIIS 1
	CNVSOSCF 1 
end

* xyz -1 1
   C       -4.74702        0.89812       -0.00980
  Br        0.62521        0.55867        0.18739
   H       -4.86188        0.50843        0.98937
   H       -4.81234        0.20795       -0.84770
   C       -4.73092        2.36006       -0.25194
   H       -4.23565        2.87507        0.57789
   H       -5.75217        2.74012       -0.33999
   H       -4.18883        2.59024       -1.17129
  Cl       -9.90981       -0.40877        0.06000
*