! BP RI OPT def2-SVP def2/J NormalPrint Grid4  NormalSCF 
%scf
	MaxIter 125
	CNVDIIS 1
	CNVSOSCF 1 
end
%output
	print[p_mos] true
end

* xyz 0 1
   C       -7.43103        1.08278        3.21918
  Br       -6.36103        1.08278        3.21918
   H       -7.78770        0.81431        2.24675
   H       -7.78770        2.05916        3.47289
   H       -7.78770        0.37487        3.93789
*