! BP RI OPT FREQ def2-QZVPP def2/J NormalPrint Grid4  NormalSCF 
%scf
	MaxIter 125
	CNVDIIS 1
	CNVSOSCF 1 
end
%output
	print[p_mos] true
end

* xyz 0 1
   C       -3.97484        1.06756       -0.06152
  Br       -1.97164        1.18142       -0.12690
   C       -4.42664       -0.16815       -0.82716
   H       -4.28119        1.99075       -0.59158
   C       -4.42660        1.10575        1.39164
   H       -4.08769       -0.14302       -1.88088
   H       -5.53777       -0.21585       -0.82738
   H       -4.04210       -1.09554       -0.35659
   H       -4.04199        0.23186        1.95533
   H       -5.53773        1.08170        1.43301
   H       -4.08779        2.02847        1.90119
*