! BP RI OPT FREQ def2-QZVPP def2/J NormalPrint Grid4  NormalSCF 
%scf
	MaxIter 125
	CNVDIIS 1
	CNVSOSCF 1 
end
%output
	print[p_mos] true
end

* xyz 0 1
   C       -3.95408        0.96040        0.00006
  Br       -1.91909        0.96041       -0.00008
   C       -4.39325       -0.30679       -0.73573
   C       -4.39325        2.23113       -0.72961
   C       -4.39316        0.95687        1.46535
   H       -4.02601       -0.31672       -1.78060
   H       -5.50463       -0.34908       -0.76045
   H       -4.02627       -1.21928       -0.22641
   H       -4.02610        0.05697        1.99656
   H       -5.50455        0.95675        1.51441
   H       -4.02610        1.85419        2.00090
   H       -4.02600        2.24611       -1.77441
   H       -4.02628        3.14115       -0.21588
   H       -5.50463        2.27352       -0.75413
*

