! BP RI OPT def2-QZVPP def2/J NormalPrint Grid4  NormalSCF 
%scf
	MaxIter 125
	CNVDIIS 1
	CNVSOSCF 1 
end
%output
	print[p_mos] true
end

* xyz 0 1
   C       -7.61467        1.08278        3.21918
  Br       -5.65909        1.08278        3.21918
   H       -7.96046        0.80377        2.20857
   H       -7.96047        2.09749        3.48285
   H       -7.96047        0.34707        3.96611
*