! BP RI OPT def2-QZVPP def2/J NormalPrint Grid4  NormalSCF 
%scf
	MaxIter 125
	CNVDIIS 1
	CNVSOSCF 1 
end
%output
	print[p_mos] true
end

* xyz 0 1
   C       -7.50013        1.13682        3.41499
  Br       -5.52904        1.18347        3.58365
   C       -7.94687        0.75037        2.01518
   H       -7.83928        2.14982        3.70213
   H       -7.83928        0.41463        4.18119
   H       -7.58129        1.47175        1.25770
   H       -9.05767        0.73901        1.97377
   H       -7.58136       -0.25748        1.73510
*