! BP RI OPT def2-QZVPP def2/J NormalPrint Grid4  NormalSCF 
%scf
	MaxIter 125
	CNVDIIS 1
	CNVSOSCF 1 
end
%output
	print[p_mos] true
end

* xyz 0 1
   C       -7.44569        0.99609        3.30719
  Br       -5.44248        0.90393        3.40072
   C       -7.89742        0.56915        1.91759
   C       -7.89743        2.39199        3.71304
   H       -7.75207        0.24907        4.06562
   H       -7.51281        1.25970        1.14004
   H       -9.00853        0.58104        1.87129
   H       -7.55843       -0.45644        1.67452
   H       -7.51284        3.15903        3.01081
   H       -7.55844        2.65059        4.73483
   H       -9.00854        2.43810        3.70046
*