! BP RI OPT def2-SVP def2/J NormalPrint TightSCF 
! CPCM(Water)
%scf
	MaxIter 125
	CNVDIIS 1
	CNVSOSCF 1 
end

* xyz -1 1
   C       -3.41712        2.45756       -0.26477
   C       -2.36231        1.69670        0.52550
   H       -3.94775        1.77638       -0.93614
   C       -4.40560        3.16412        0.65159
  Br       -5.84232       -0.97476        0.37966
   H       -1.77946        2.36649        1.16757
   H       -1.66686        1.18042       -0.14503
   H       -2.82664        0.94170        1.16776
   H       -3.90462        3.89271        1.29871
   H       -4.92028        2.44528        1.29696
   H       -5.16793        3.69478        0.07102
  Cl       -2.60496        3.67767       -1.30332
*