! BP RI OPT def2-SVP def2/J NormalPrint TightSCF 
%scf
	MaxIter 125
	CNVDIIS 1
	CNVSOSCF 1 
end

* xyz -1 1
   C       -4.71686        0.88930        0.04480
  Br       -0.71570        0.48137       -0.35502
   H       -4.14486        0.60565        0.93200
   H       -4.34818        0.32776       -0.81747
   C       -4.63680        2.38186       -0.20158
   H       -5.01620        2.94560        0.65713
   H       -5.21856        2.66908       -1.08374
   H       -3.59986        2.68644       -0.37050
  Cl       -6.41556        0.40905        0.31851
*