! BP RI OPT def2-SVP def2/J NormalPrint TightSCF 
%scf
	MaxIter 125
	CNVDIIS 1
	CNVSOSCF 1 
end

* xyz -1 1
   C       -3.40812        2.48561       -0.30386
   C       -2.23068        1.85874        0.35577
   H       -3.43236        2.54794       -1.38535
   C       -4.32106        3.35325        0.48874
  Br       -8.37974       -4.62514        1.45981
   H       -1.44244        2.60010        0.51287
   H       -1.83085        1.05934       -0.27587
   H       -2.50612        1.42194        1.31930
   H       -3.86045        4.32884        0.66668
   H       -4.56422        2.89338        1.45022
   H       -5.25641        3.50843       -0.05797
  Cl        0.88690        8.80789       -3.84198
*