! BP RI OPT def2-SVP def2/J NormalPrint TightSCF 
%scf
	MaxIter 125
	CNVDIIS 1
	CNVSOSCF 1 
end

* xyz -1 1
   C       -3.91469        1.49713       -0.16450
   C       -2.38988        1.50622       -0.23842
  Br       -4.59824        1.47983       -2.02536
   C       -4.44897        2.76013        0.50630
   C       -4.43308        0.23699        0.52391
   H       -4.08693       -0.67068        0.01604
   H       -5.52878        0.20735        0.53752
   H       -4.08831        0.18672        1.56182
   H       -2.01787        2.38830       -0.77241
   H       -2.00675        0.62152       -0.76009
   H       -1.94844        1.51598        0.76342
   H       -4.11423        3.66490       -0.01422
   H       -4.10497        2.82922        1.54337
   H       -5.54496        2.77615        0.51958
  Cl       -2.28062        1.53873        4.28374
*