! BP RI OPT def2-SVP def2/J NormalPrint TightSCF 
! CPCM(Acetonitrile)
%scf
	MaxIter 125
	CNVDIIS 1
	CNVSOSCF 1 
end

* xyz -1 1
   C       -3.70300        2.06848       -0.25121
   C       -2.35089        1.73309        0.35460
   H       -3.60871        2.29518       -1.31680
   C       -4.40127        3.19900        0.48503
  Br       -4.84124        0.46754       -0.15144
   H       -1.68179        2.59844        0.31547
   H       -1.86797        0.91311       -0.18825
   H       -2.44153        1.42791        1.40325
   H       -3.80200        4.11428        0.45034
   H       -4.57222        2.95123        1.53878
   H       -5.37518        3.42057        0.03484
  Cl       -1.69975        5.05150       -2.28624
*