! BP RI OPT def2-SVP def2/J NormalPrint TightSCF 
! CPCM(Water)
%scf
	MaxIter 125
	CNVDIIS 1
	CNVSOSCF 1 
end

* xyz -1 1
   C       -3.56817        1.59296        0.77105
   C       -2.36670        1.51102       -0.17117
  Br       -5.23213        0.94597       -3.76161
   C       -4.45575        2.78568        0.41377
   C       -4.37102        0.29203        0.73866
   H       -4.76876        0.09990       -0.26314
   H       -5.22147        0.32913        1.42905
   H       -3.75129       -0.56792        1.01740
   H       -1.76877        2.42899       -0.13826
   H       -2.68851        1.36506       -1.20744
   H       -1.70914        0.67407        0.09040
   H       -3.89724        3.72771        0.45772
   H       -5.30779        2.86984        1.09803
   H       -4.85669        2.68801       -0.60035
  Cl       -2.95124        1.83287        2.45157
*