! BP RI OPT def2-SVP def2/J NormalPrint TightSCF 
! CPCM(Water)
%scf
	MaxIter 125
	CNVDIIS 1
	CNVSOSCF 1 
end

* xyz -1 1
   C       -3.76400        1.50130        0.24513
   C       -2.31075        1.50732       -0.09422
  Br       -5.95479        1.44543       -5.71826
   C       -4.40487        2.78256        0.66317
   C       -4.38856        0.21676        0.68110
   H       -4.03714       -0.61576        0.06400
   H       -5.47766        0.26147        0.58500
   H       -4.13920        0.00613        1.72517
   H       -2.05459        2.38803       -0.69227
   H       -2.04353        0.62276       -0.67978
   H       -1.70550        1.51791        0.81724
   H       -4.06367        3.61148        0.03436
   H       -4.15810        3.01145        1.70428
   H       -5.49306        2.72339        0.56782
  Cl       -1.51131        1.55827        6.37798
*