! BP RI OPT def2-SVP def2/J NormalPrint TightSCF 
! CPCM(Water)
%scf
	MaxIter 125
	CNVDIIS 1
	CNVSOSCF 1 
end

* xyz -1 1
   C       -4.27420        0.84138        0.00892
  Br       -2.33603        0.60984        0.09900
   H       -4.67483        0.49147        0.96307
   H       -4.62703        0.20376       -0.80490
   C       -4.59217        2.29864       -0.23683
   H       -4.20267        2.93212        0.56730
   H       -5.67406        2.45074       -0.29084
   H       -4.15546        2.64801       -1.17857
  Cl       -8.07696       -0.14605        0.06679
*